NAME : local_3
TYPE : ATSP
DIMENSION : 28
EDGE_WEIGHT_TYPE : EXPLICIT
EDGE_WEIGHT_FORMAT : FULL_MATRIX
EDGE_WEIGHT_SECTION
0 10000000 10000000 10000000 690 10000000 373 10000000 10000000 448 142 268 961 350 10000000 10000000 604 10000000 10000000 10000000 10000000 930 571 977 10000000 10000000 363 10000000 
0 0 363 10000000 733 10000000 947 10000000 10000000 10000000 10000000 10000000 10000000 10000000 10000000 10000000 807 242 10000000 10000000 10000000 10000000 915 672 10000000 395 870 876 
0 363 0 867 950 10000000 10000000 10000000 816 10000000 10000000 10000000 10000000 10000000 10000000 10000000 10000000 539 897 10000000 10000000 10000000 10000000 941 10000000 274 10000000 738 
0 10000000 867 0 10000000 649 10000000 554 181 10000000 10000000 10000000 10000000 10000000 694 896 10000000 10000000 445 793 526 1009 10000000 10000000 10000000 991 10000000 933 
0 733 950 10000000 0 10000000 415 10000000 10000000 10000000 581 482 10000000 827 10000000 10000000 583 734 10000000 10000000 10000000 1034 575 834 10000000 841 533 10000000 
0 10000000 10000000 649 10000000 0 10000000 581 806 969 10000000 10000000 511 10000000 221 10000000 10000000 10000000 837 578 271 583 10000000 10000000 10000000 10000000 10000000 10000000 
0 947 10000000 10000000 415 10000000 0 10000000 10000000 815 318 194 10000000 623 10000000 10000000 355 850 10000000 10000000 10000000 10000000 289 749 10000000 10000000 225 10000000 
0 10000000 10000000 554 10000000 581 10000000 0 583 10000000 10000000 10000000 675 10000000 473 502 10000000 10000000 371 276 695 1061 10000000 10000000 839 10000000 10000000 949 
0 10000000 816 181 10000000 806 10000000 583 0 10000000 10000000 10000000 10000000 10000000 827 820 10000000 10000000 352 848 701 10000000 10000000 10000000 10000000 984 10000000 782 
0 10000000 10000000 10000000 10000000 969 815 10000000 10000000 0 513 672 545 343 964 10000000 10000000 10000000 10000000 874 10000000 793 10000000 10000000 873 10000000 787 10000000 
0 10000000 10000000 10000000 581 10000000 318 10000000 10000000 513 0 165 1001 317 10000000 10000000 614 10000000 10000000 10000000 10000000 850 572 995 10000000 10000000 379 10000000 
0 10000000 10000000 10000000 482 10000000 194 10000000 10000000 672 165 0 10000000 438 10000000 10000000 538 10000000 10000000 10000000 10000000 969 471 933 10000000 10000000 348 10000000 
0 10000000 10000000 10000000 10000000 511 10000000 675 10000000 545 996 10000000 0 798 452 10000000 10000000 10000000 10000000 491 757 674 10000000 10000000 816 10000000 10000000 10000000 
0 10000000 10000000 10000000 827 10000000 623 10000000 10000000 343 317 438 798 0 10000000 10000000 927 10000000 10000000 10000000 10000000 750 878 10000000 10000000 10000000 689 10000000 
0 10000000 10000000 694 10000000 221 10000000 473 827 964 10000000 10000000 452 10000000 0 958 10000000 10000000 789 406 464 759 10000000 10000000 10000000 10000000 10000000 10000000 
0 10000000 10000000 896 10000000 10000000 10000000 502 820 10000000 10000000 10000000 10000000 10000000 958 0 10000000 10000000 469 614 10000000 10000000 10000000 10000000 760 10000000 10000000 738 
0 807 10000000 10000000 583 10000000 355 10000000 10000000 10000000 614 538 10000000 927 10000000 10000000 0 634 10000000 10000000 10000000 10000000 139 408 10000000 10000000 252 10000000 
0 242 539 10000000 734 10000000 850 10000000 10000000 10000000 10000000 10000000 10000000 10000000 10000000 10000000 634 0 10000000 10000000 10000000 10000000 754 434 10000000 627 746 825 
0 10000000 897 445 10000000 837 10000000 371 352 10000000 10000000 10000000 10000000 10000000 789 469 10000000 10000000 0 640 839 10000000 10000000 10000000 10000000 10000000 10000000 632 
0 10000000 10000000 793 10000000 578 10000000 276 848 874 10000000 10000000 491 10000000 406 614 10000000 10000000 640 0 783 1027 10000000 10000000 648 10000000 10000000 10000000 
0 10000000 10000000 526 10000000 271 10000000 695 701 10000000 10000000 10000000 757 10000000 464 10000000 10000000 10000000 839 783 0 580 10000000 10000000 10000000 10000000 10000000 10000000 
0 10000000 10000000 1032 1004 583 10000000 1041 10000000 793 869 969 674 750 759 10000000 10000000 10000000 10000000 1031 580 0 10000000 10000000 10000000 10000000 10000000 10000000 
0 915 10000000 10000000 575 10000000 289 10000000 10000000 10000000 572 471 10000000 878 10000000 10000000 139 754 10000000 10000000 10000000 10000000 0 524 10000000 10000000 270 10000000 
0 672 941 10000000 834 10000000 749 10000000 10000000 10000000 995 933 10000000 10000000 10000000 10000000 408 434 10000000 10000000 10000000 10000000 524 0 10000000 10000000 619 1034 
0 10000000 10000000 10000000 10000000 10000000 10000000 839 10000000 873 10000000 10000000 816 10000000 10000000 760 10000000 10000000 10000000 648 10000000 10000000 10000000 10000000 0 10000000 10000000 10000000 
0 395 274 991 841 10000000 10000000 10000000 984 10000000 10000000 10000000 10000000 10000000 10000000 10000000 10000000 627 10000000 10000000 10000000 10000000 10000000 10000000 10000000 0 10000000 10000000 
0 870 10000000 10000000 533 10000000 225 10000000 10000000 787 379 348 10000000 689 10000000 10000000 252 746 10000000 10000000 10000000 10000000 270 619 10000000 10000000 0 10000000 
0 10000000 10000000 10000000 10000000 10000000 10000000 10000000 10000000 10000000 10000000 10000000 10000000 10000000 10000000 10000000 10000000 10000000 10000000 10000000 10000000 10000000 10000000 10000000 10000000 10000000 10000000 0 
EOF